
Log started (V12.10.0.0) Fri Apr  9 00:22:12 2021


Problem 'asset.lp' read.
Read time = 0.00 sec. (0.09 ticks)
New value for default parallel thread count: 1
New value for time limit in seconds: 200
Version identifier: 12.10.0.0 | 2019-11-26 | 843d4de
CPXPARAM_Threads                                 1
CPXPARAM_TimeLimit                               200
Found incumbent of value -0.874280 after 0.00 sec. (0.05 ticks)
Tried aggregator 3 times.
MIP Presolve eliminated 216 rows and 106 columns.
MIP Presolve modified 824 coefficients.
Aggregator did 271 substitutions.
Reduced MIP has 424 rows, 449 columns, and 1815 nonzeros.
Reduced MIP has 364 binaries, 59 generals, 0 SOSs, and 0 indicators.
Presolve time = 0.01 sec. (3.90 ticks)
Probing fixed 95 vars, tightened 12 bounds.
Probing time = 0.00 sec. (1.06 ticks)
Cover probing fixed 0 vars, tightened 58 bounds.
Tried aggregator 1 time.
MIP Presolve eliminated 134 rows and 127 columns.
MIP Presolve modified 40 coefficients.
Reduced MIP has 290 rows, 318 columns, and 1082 nonzeros.
Reduced MIP has 249 binaries, 43 generals, 0 SOSs, and 0 indicators.
Presolve time = 0.00 sec. (1.04 ticks)
Probing time = 0.00 sec. (0.53 ticks)
Tried aggregator 1 time.
Detecting symmetries...
MIP Presolve modified 20 coefficients.
Reduced MIP has 290 rows, 318 columns, and 1082 nonzeros.
Reduced MIP has 249 binaries, 43 generals, 0 SOSs, and 0 indicators.
Presolve time = 0.00 sec. (0.73 ticks)
Probing time = 0.00 sec. (0.53 ticks)
Clique table members: 833.
MIP emphasis: balance optimality and feasibility.
MIP search method: dynamic search.
Parallel mode: none, using 1 thread.
Root relaxation solution time = 0.00 sec. (2.15 ticks)

        Nodes                                         Cuts/
   Node  Left     Objective  IInf  Best Integer    Best Bound    ItCnt     Gap

*     0+    0                           -0.8743      232.4157              --- 
      0     0      193.5815   107       -0.8743      193.5815      215     --- 
      0     0      190.9163   107       -0.8743     Cuts: 172      362     --- 
      0     0      188.8908   107       -0.8743     Cuts: 140      495     --- 
      0     0      186.9513   107       -0.8743      Cuts: 76      615     --- 
      0     0      185.7028   107       -0.8743     Cuts: 100      678     --- 
      0     0      185.4506   107       -0.8743      Cuts: 87      881     --- 
Detecting symmetries...
      0     0      185.4475   107       -0.8743      Cuts: 99      941     --- 
*     0+    0                          162.5807      185.4475            14.06%
      0     0      185.4471   107      162.5807      Cuts: 44      983   14.06%
*     0+    0                          162.5807      185.4471            14.06%
*     0+    0                          162.5808      185.4471            14.06%
      0     0        cutoff            162.5808      185.4471      983   14.06%
Detecting symmetries...
      0     2      185.4471    90      162.5808      185.4471      983   14.06%
Elapsed time = 0.09 sec. (75.91 ticks, tree = 0.01 MB, solutions = 3)
*    36    29      integral     0      168.3096      185.4470     1568   10.18%
*    50+   31                          170.2768      185.4458             8.91%
*   110+   35                          178.1853      185.4390             4.07%
*   120+   43                          178.1860      185.4390             4.07%
*   124    42      integral     0      178.1861      185.4390     3035    4.07%
*   191    53      integral     0      178.1869      183.0635     4800    2.74%

Clique cuts applied:  36
Cover cuts applied:  1
Implied bound cuts applied:  121
Flow cuts applied:  3
Mixed integer rounding cuts applied:  17
Zero-half cuts applied:  15
Lift and project cuts applied:  1
Gomory fractional cuts applied:  4

Root node processing (before b&c):
  Real time             =    0.09 sec. (75.96 ticks)
Sequential b&c:
  Real time             =    0.28 sec. (285.40 ticks)
                          ------------
Total (root+branch&cut) =    0.37 sec. (361.36 ticks)

Solution pool: 10 solutions saved.

MIP - Integer optimal, tolerance (0.0001/1e-06):  Objective =  1.7818692909e+02
Current MIP best bound =  1.7819715335e+02 (gap = 0.0102243, 0.01%)
Solution time =    0.37 sec.  Iterations = 10495  Nodes = 874 (96)
Deterministic time = 361.36 ticks  (986.30 ticks/sec)


Incumbent solution
Variable Name           Solution Value
F                           190.000000
f1                            0.913071
f2                           10.900000
y65                           1.000000
y194                          1.000000
y142                          1.000000
y72                           1.000000
y111                          1.000000
y112                          1.000000
y115                          1.000000
y124                          1.000000
y2                            1.000000
y125                          1.000000
y196                          1.000000
y144                          1.000000
y190                          1.000000
y110                          1.000000
s44                           6.000000
s65                           6.628240
s90                           6.000000
s113                          6.000000
s116                          6.000000
s128                          6.000000
s161                          6.000000
s162                          6.020000
s146                          6.090000
s99                           6.150000
s194                          6.180000
s53                           6.200000
s142                          6.816898
s72                           7.159800
s111                          7.218873
s167                          6.520000
s112                          6.843022
s191                          6.670000
s115                          6.680000
s124                          7.500449
s2                            7.181834
s52                           6.840000
s125                          7.084684
s196                          7.906340
s144                          7.864390
s85                           7.050000
s190                          7.996500
s110                          7.855298
x100x112x1                    1.000000
x203x65x1                     2.000000
x138x124x1                    1.000000
x175x194x1                    2.000000
x100x112x2                    1.000000
x33x2x2                       1.000000
x14x142x2                     1.000000
x5x124x2                      1.000000
x5x144x2                      1.000000
x98x115x2                     2.000000
x121x2x3                      1.000000
x121x125x3                    1.000000
x33x125x3                     1.000000
x14x142x3                     1.000000
x168x72x3                     2.000000
x138x196x3                    1.000000
x65x110x1                     2.000000
x194x111x1                    2.000000
x142x0x2                      1.000000
x142x196x3                    1.000000
x72x0x3                       2.000000
x111x0x1                      2.000000
x112x190x1                    1.000000
x112x0x2                      1.000000
x115x144x2                    1.000000
x115x190x2                    1.000000
x124x0x1                      1.000000
x124x0x2                      1.000000
x2x0x2                        1.000000
x2x0x3                        1.000000
x125x0x3                      2.000000
x196x0x3                      2.000000
x144x0x2                      2.000000
x190x0x1                      1.000000
x190x0x2                      1.000000
x110x0x1                      2.000000
s121                          5.118559
z121z2z3                      1.000000
z121z125z3                    1.000000
z121z196z3                    1.000000
s100                          5.040332
z100z112z1                    1.000000
z100z112z2                    1.000000
z100z110z1                    1.000000
s203                          5.080056
z203z65z1                     1.000000
z203z110z1                    1.000000
s33                           5.473844
z33z2z2                       1.000000
z33z125z3                     1.000000
s14                           5.341712
z14z142z2                     1.000000
z14z142z3                     1.000000
z14z196z3                     1.000000
s168                          5.798762
z168z72z3                     1.000000
z168z196z3                    1.000000
s138                          5.927378
z138z124z1                    1.000000
z138z196z3                    1.000000
s5                            5.760000
z5z124z2                      1.000000
z5z144z2                      1.000000
s98                           4.398720
z98z115z2                     1.000000
z98z144z2                     1.000000
s175                          4.345910
z175z65z1                     1.000000
z175z128z1                    1.000000
z175z194z1                    1.000000
z175z111z1                    1.000000
z175z85z1                     1.000000
z175z110z1                    1.000000
z65z110z1                     1.000000
z194z111z1                    1.000000
z142z196z3                    1.000000
z112z190z1                    1.000000
z115z144z2                    1.000000
z115z190z2                    1.000000
All other variables in the range 1-830 are 0.
